SAT
-1 -75 -74 -73 70 72 -52 67 -5 -54 -33 -6 -7 60 -65 24 -20 -47 -39 -17 59 -63 -66 40 37 -11 23 41 -44 26 -29 15 -4 22 -43 46 25 -55 -21 -27 -62 -34 -53 -13 28 -64 -35 -48 51 10 50 -69 30 -9 -61 -38 -58 -42 -18 -31 -14 3 2 -19 56 -57 45 12 -36 32 71 -8 -49 -16 -68 0
